(set-info :smt-lib-version 2.6)
(set-logic QF_UF)
(set-info :source |
Generated by: David Deharbe, CLEARSY
Generated on: 2019-09-09
Generator: bxml;pog;pog2smt (Atelier B)
Application: B-method
Target solver: CVC4, Z3
|)
(set-info :license "https://creativecommons.org/licenses/by-nc/4.0/")
(set-info :category "industrial")
(set-info :status sat)
; Prelude
(declare-sort U 0)
(declare-fun |*i| (U U) U)
(declare-fun |+i| (U U) U)
(declare-fun |-i| (U U) U)
(declare-fun idiv (U U) U)
(declare-fun |*r| (U U) U)
(declare-fun |+r| (U U) U)
(declare-fun |-r| (U U) U)
(declare-fun rdiv (U U) U)
(declare-fun modulo (U U) U)
(declare-fun |<i| (U U) Bool)
(declare-fun |<=i| (U U) Bool)
(declare-fun |>i| (U U) Bool)
(declare-fun |>=i| (U U) Bool)
(declare-fun |<r| (U U) Bool)
(declare-fun |<=r| (U U) Bool)
(declare-fun |>r| (U U) Bool)
(declare-fun |>=r| (U U) Bool)
(declare-fun iuminus (U) U)
(declare-fun ruminus (U) U)
(declare-fun TRUE () U)
(declare-fun FALSE () U)
(assert (not (= TRUE FALSE)))
(declare-fun empty () U)
(declare-fun bool (Bool) U)
(declare-fun BOOL () U)
(declare-fun INT () U)
(declare-fun INTEGER () U)
(declare-fun NAT () U)
(declare-fun NAT1 () U)
(declare-fun NATURAL () U)
(declare-fun NATURAL1 () U)
(declare-fun FLOAT () U)
(declare-fun MaxInt () U)
(declare-fun MinInt () U)
(declare-fun |STRING| () U)
(declare-fun REAL () U)
(declare-fun set_prod (U U) U)
(declare-fun set_diff (U U) U)
(declare-fun mapplet (U U) U)
(declare-fun |**i| (U U) U)
(declare-fun |**r| (U U) U)
(declare-fun |+->| (U U) U)
(declare-fun |+->>| (U U) U)
(declare-fun |-->| (U U) U)
(declare-fun |-->>| (U U) U)
(declare-fun |<->| (U U) U)
(declare-fun |>+>| (U U) U)
(declare-fun |>->| (U U) U)
(declare-fun |>+>>| (U U) U)
(declare-fun |>->>| (U U) U)
(declare-fun |->| (U U) U)
(declare-fun interval (U U) U)
(declare-fun composition (U U) U)
(declare-fun binary_inter (U U) U)
(declare-fun restriction_head (U U) U)
(declare-fun semicolon (U U) U)
(declare-fun |<+| (U U) U)
(declare-fun |<-| (U U) U)
(declare-fun domain_subtraction (U U) U)
(declare-fun domain_restriction (U U) U)
(declare-fun |><| (U U) U)
(declare-fun parallel_product (U U) U)
(declare-fun binary_union (U U) U)
(declare-fun restriction_tail (U U) U)
(declare-fun concatenate (U U) U)
(declare-fun range_restriction (U U) U)
(declare-fun range_subtraction (U U) U)
(declare-fun image (U U) U)
(declare-fun apply (U U) U)
(declare-fun prj1 (U U) U)
(declare-fun prj2 (U U) U)
(declare-fun iterate (U U) U)
(declare-fun |const| (U U) U)
(declare-fun rank (U U) U)
(declare-fun father (U U) U)
(declare-fun subtree (U U) U)
(declare-fun arity (U U) U)
(declare-fun |+f| (U U) U)
(declare-fun |-f| (U U) U)
(declare-fun |*f| (U U) U)
(declare-fun |fdiv| (U U) U)
(declare-fun tbin (U U U) U)
(declare-fun son (U U U) U)
(declare-fun mem (U U) Bool)
(declare-fun subset (U U) Bool)
(declare-fun strict_subset (U U) Bool)
(declare-fun |<=f| (U U) Bool)
(declare-fun |<f| (U U) Bool)
(declare-fun |>=f| (U U) Bool)
(declare-fun |>f| (U U) Bool)
(declare-fun imax (U) U)
(declare-fun imin (U) U)
(declare-fun rmax (U) U)
(declare-fun rmin (U) U)
(declare-fun card (U) U)
(declare-fun dom (U) U)
(declare-fun ran (U) U)
(declare-fun POW (U) U)
(declare-fun POW1 (U) U)
(declare-fun FIN (U) U)
(declare-fun FIN1 (U) U)
(declare-fun union (U) U)
(declare-fun inter (U) U)
(declare-fun seq (U) U)
(declare-fun seq1 (U) U)
(declare-fun iseq (U) U)
(declare-fun iseq1 (U) U)
(declare-fun inverse (U) U)
(declare-fun size (U) U)
(declare-fun perm (U) U)
(declare-fun first (U) U)
(declare-fun last (U) U)
(declare-fun id (U) U)
(declare-fun closure (U) U)
(declare-fun closure1 (U) U)
(declare-fun tail (U) U)
(declare-fun front (U) U)
(declare-fun reverse (U) U)
(declare-fun rev (U) U)
(declare-fun conc (U) U)
(declare-fun succ (U) U)
(declare-fun pred (U) U)
(declare-fun rel (U) U)
(declare-fun fnc (U) U)
(declare-fun real (U) U)
(declare-fun floor (U) U)
(declare-fun ceiling (U) U)
(declare-fun tree (U) U)
(declare-fun btree (U) U)
(declare-fun top (U) U)
(declare-fun sons (U) U)
(declare-fun prefix (U) U)
(declare-fun postfix (U) U)
(declare-fun sizet (U) U)
(declare-fun mirror (U) U)
(declare-fun left (U) U)
(declare-fun right (U) U)
(declare-fun infix (U) U)
(declare-fun ubin (U) U)
(declare-fun SEQ (U) U)
(declare-fun SET (U) U)
; Opaque formulas
(declare-fun e0 () U)
(declare-fun e151 () U)
(declare-fun g_s0_1 () U)
(declare-fun g_s1_2 () U)
(declare-fun g_s10_11 () U)
(declare-fun g_s100_101 () U)
(declare-fun g_s101_102 () U)
(declare-fun g_s102_103 () U)
(declare-fun g_s103_104 () U)
(declare-fun g_s104_105 () U)
(declare-fun g_s105_106 () U)
(declare-fun g_s106_107 () U)
(declare-fun g_s107_108 () U)
(declare-fun g_s108_109 () U)
(declare-fun g_s109_110 () U)
(declare-fun g_s11_12 () U)
(declare-fun g_s110_111 () U)
(declare-fun g_s111_112 () U)
(declare-fun g_s112_113 () U)
(declare-fun g_s113_114 () U)
(declare-fun g_s114_115 () U)
(declare-fun g_s115_116 () U)
(declare-fun g_s116_117 () U)
(declare-fun g_s117_118 () U)
(declare-fun g_s118_119 () U)
(declare-fun g_s119_120 () U)
(declare-fun g_s12_13 () U)
(declare-fun g_s120_121 () U)
(declare-fun g_s121_122 () U)
(declare-fun g_s122_123 () U)
(declare-fun g_s123_124 () U)
(declare-fun g_s124_125 () U)
(declare-fun g_s125_126 () U)
(declare-fun g_s126_127 () U)
(declare-fun g_s127_128 () U)
(declare-fun g_s128_129 () U)
(declare-fun g_s129_130 () U)
(declare-fun g_s13_14 () U)
(declare-fun g_s130_131 () U)
(declare-fun g_s131_132 () U)
(declare-fun g_s132_133 () U)
(declare-fun g_s133_134 () U)
(declare-fun g_s134_135 () U)
(declare-fun g_s135_136 () U)
(declare-fun g_s136_137 () U)
(declare-fun g_s137_138 () U)
(declare-fun g_s138_139 () U)
(declare-fun g_s139_140 () U)
(declare-fun g_s14_15 () U)
(declare-fun g_s140_141 () U)
(declare-fun g_s141_142 () U)
(declare-fun g_s142_143 () U)
(declare-fun g_s143_144 () U)
(declare-fun g_s144_145 () U)
(declare-fun g_s145_146 () U)
(declare-fun g_s146_147 () U)
(declare-fun g_s149_150 () U)
(declare-fun g_s15_16 () U)
(declare-fun g_s150_152 () U)
(declare-fun g_s151_153 () U)
(declare-fun g_s152_154 () U)
(declare-fun g_s153_155 () U)
(declare-fun g_s154_156 () U)
(declare-fun g_s155_157 () U)
(declare-fun g_s156_158 () U)
(declare-fun g_s157_159 () U)
(declare-fun g_s158_160 () U)
(declare-fun g_s159_161 () U)
(declare-fun g_s16_17 () U)
(declare-fun g_s160_162 () U)
(declare-fun g_s161_163 () U)
(declare-fun g_s162_164 () U)
(declare-fun g_s163_165 () U)
(declare-fun g_s164_166 () U)
(declare-fun g_s165_167 () U)
(declare-fun g_s166_168 () U)
(declare-fun g_s167_169 () U)
(declare-fun g_s168_170 () U)
(declare-fun g_s169_171 () U)
(declare-fun g_s17_18 () U)
(declare-fun g_s170_172 () U)
(declare-fun g_s171_173 () U)
(declare-fun g_s172_174 () U)
(declare-fun g_s173_175 () U)
(declare-fun g_s174_176 () U)
(declare-fun g_s175_178 () U)
(declare-fun g_s176_177 () U)
(declare-fun g_s177_179 () U)
(declare-fun g_s178_180 () U)
(declare-fun g_s179_181 () U)
(declare-fun g_s18_19 () U)
(declare-fun g_s180_182 () U)
(declare-fun g_s181_183 () U)
(declare-fun g_s182_184 () U)
(declare-fun g_s183_185 () U)
(declare-fun g_s184_186 () U)
(declare-fun g_s185_187 () U)
(declare-fun g_s186_188 () U)
(declare-fun g_s187_189 () U)
(declare-fun g_s188_190 () U)
(declare-fun g_s189_191 () U)
(declare-fun g_s19_20 () U)
(declare-fun g_s190_192 () U)
(declare-fun g_s191_193 () U)
(declare-fun g_s192_194 () U)
(declare-fun g_s193_195 () U)
(declare-fun g_s194_196 () U)
(declare-fun g_s195_197 () U)
(declare-fun g_s196_198 () U)
(declare-fun g_s197_199 () U)
(declare-fun g_s198_200 () U)
(declare-fun g_s199_201 () U)
(declare-fun g_s2_3 () U)
(declare-fun g_s20_21 () U)
(declare-fun g_s200_202 () U)
(declare-fun g_s201_203 () U)
(declare-fun g_s202_204 () U)
(declare-fun g_s203_205 () U)
(declare-fun g_s204_206 () U)
(declare-fun g_s205_207 () U)
(declare-fun g_s206_208 () U)
(declare-fun g_s207_209 () U)
(declare-fun g_s208_210 () U)
(declare-fun g_s209_211 () U)
(declare-fun g_s21_22 () U)
(declare-fun g_s210_212 () U)
(declare-fun g_s211_213 () U)
(declare-fun g_s212_214 () U)
(declare-fun g_s213_215 () U)
(declare-fun g_s214_216 () U)
(declare-fun g_s215_217 () U)
(declare-fun g_s216_218 () U)
(declare-fun g_s217_219 () U)
(declare-fun g_s218_220 () U)
(declare-fun g_s219_221 () U)
(declare-fun g_s22_23 () U)
(declare-fun g_s220_222 () U)
(declare-fun g_s221_223 () U)
(declare-fun g_s222_224 () U)
(declare-fun g_s223_225 () U)
(declare-fun g_s224_226 () U)
(declare-fun g_s225_227 () U)
(declare-fun g_s226_228 () U)
(declare-fun g_s227_229 () U)
(declare-fun g_s228_230 () U)
(declare-fun g_s229_231 () U)
(declare-fun g_s23_24 () U)
(declare-fun g_s230_232 () U)
(declare-fun g_s231_233 () U)
(declare-fun g_s232_234 () U)
(declare-fun g_s233_235 () U)
(declare-fun g_s234_236 () U)
(declare-fun g_s235_237 () U)
(declare-fun g_s236_238 () U)
(declare-fun g_s237_239 () U)
(declare-fun g_s238_240 () U)
(declare-fun g_s239_241 () U)
(declare-fun g_s24_25 () U)
(declare-fun g_s240_242 () U)
(declare-fun g_s241_243 () U)
(declare-fun g_s242_244 () U)
(declare-fun g_s243_245 () U)
(declare-fun g_s244_246 () U)
(declare-fun g_s245_247 () U)
(declare-fun g_s246_248 () U)
(declare-fun g_s247_249 () U)
(declare-fun g_s248_250 () U)
(declare-fun g_s249_251 () U)
(declare-fun g_s25_26 () U)
(declare-fun g_s250_252 () U)
(declare-fun g_s251_253 () U)
(declare-fun g_s252_254 () U)
(declare-fun g_s253_255 () U)
(declare-fun g_s254_256 () U)
(declare-fun g_s255_257 () U)
(declare-fun g_s256_258 () U)
(declare-fun g_s257_259 () U)
(declare-fun g_s258_260 () U)
(declare-fun g_s259_261 () U)
(declare-fun g_s26_27 () U)
(declare-fun g_s260_262 () U)
(declare-fun g_s261_263 () U)
(declare-fun g_s262_264 () U)
(declare-fun g_s263_265 () U)
(declare-fun g_s264_266 () U)
(declare-fun g_s265_267 () U)
(declare-fun g_s266_268 () U)
(declare-fun g_s267_269 () U)
(declare-fun g_s268_270 () U)
(declare-fun g_s269_271 () U)
(declare-fun g_s27_28 () U)
(declare-fun g_s270_272 () U)
(declare-fun g_s271_273 () U)
(declare-fun g_s272_274 () U)
(declare-fun g_s273_275 () U)
(declare-fun g_s274_276 () U)
(declare-fun g_s275_277 () U)
(declare-fun g_s276_278 () U)
(declare-fun g_s277_279 () U)
(declare-fun g_s278_280 () U)
(declare-fun g_s279_281 () U)
(declare-fun g_s28_29 () U)
(declare-fun g_s280_282 () U)
(declare-fun g_s281_283 () U)
(declare-fun g_s282_284 () U)
(declare-fun g_s283_285 () U)
(declare-fun g_s284_286 () U)
(declare-fun g_s285_287 () U)
(declare-fun g_s286_288 () U)
(declare-fun g_s287_289 () U)
(declare-fun g_s288_290 () U)
(declare-fun g_s289_291 () U)
(declare-fun g_s29_30 () U)
(declare-fun g_s290_292 () U)
(declare-fun g_s291_293 () U)
(declare-fun g_s292_294 () U)
(declare-fun g_s293_295 () U)
(declare-fun g_s294_296 () U)
(declare-fun g_s295_297 () U)
(declare-fun g_s296_298 () U)
(declare-fun g_s297_299 () U)
(declare-fun g_s298_300 () U)
(declare-fun g_s299_301 () U)
(declare-fun g_s3_4 () U)
(declare-fun g_s30_31 () U)
(declare-fun g_s300_302 () U)
(declare-fun g_s301_303 () U)
(declare-fun g_s302_304 () U)
(declare-fun g_s303_305 () U)
(declare-fun g_s304_306 () U)
(declare-fun g_s305_307 () U)
(declare-fun g_s306_308 () U)
(declare-fun g_s307_309 () U)
(declare-fun g_s308_310 () U)
(declare-fun g_s309_311 () U)
(declare-fun g_s31_32 () U)
(declare-fun g_s310_312 () U)
(declare-fun g_s311_313 () U)
(declare-fun g_s312_314 () U)
(declare-fun g_s313_315 () U)
(declare-fun g_s314_316 () U)
(declare-fun g_s315_317 () U)
(declare-fun g_s316_318 () U)
(declare-fun g_s317_319 () U)
(declare-fun g_s318_320 () U)
(declare-fun g_s319_321 () U)
(declare-fun g_s32_33 () U)
(declare-fun g_s320_322 () U)
(declare-fun g_s321_323 () U)
(declare-fun g_s322_324 () U)
(declare-fun g_s323_325 () U)
(declare-fun g_s324_326 () U)
(declare-fun g_s325_327 () U)
(declare-fun g_s326_328 () U)
(declare-fun g_s327_329 () U)
(declare-fun g_s328_330 () U)
(declare-fun g_s329_331 () U)
(declare-fun g_s33_34 () U)
(declare-fun g_s330_332 () U)
(declare-fun g_s331_333 () U)
(declare-fun g_s332_334 () U)
(declare-fun g_s333_335 () U)
(declare-fun g_s334_336 () U)
(declare-fun g_s335_337 () U)
(declare-fun g_s336_338 () U)
(declare-fun g_s337_339 () U)
(declare-fun g_s338_340 () U)
(declare-fun g_s339_341 () U)
(declare-fun g_s34_35 () U)
(declare-fun g_s340_342 () U)
(declare-fun g_s341_343 () U)
(declare-fun g_s342_344 () U)
(declare-fun g_s343_345 () U)
(declare-fun g_s344_346 () U)
(declare-fun g_s345_347 () U)
(declare-fun g_s346_348 () U)
(declare-fun g_s347_349 () U)
(declare-fun g_s348_350 () U)
(declare-fun g_s349_351 () U)
(declare-fun g_s35_36 () U)
(declare-fun g_s350_352 () U)
(declare-fun g_s351_353 () U)
(declare-fun g_s352_354 () U)
(declare-fun g_s353_355 () U)
(declare-fun g_s354_356 () U)
(declare-fun g_s355_357 () U)
(declare-fun g_s356_358 () U)
(declare-fun g_s357_359 () U)
(declare-fun g_s358_360 () U)
(declare-fun g_s359_361 () U)
(declare-fun g_s36_37 () U)
(declare-fun g_s37_38 () U)
(declare-fun g_s38_39 () U)
(declare-fun g_s39_40 () U)
(declare-fun g_s4_5 () U)
(declare-fun g_s40_41 () U)
(declare-fun g_s41_42 () U)
(declare-fun g_s42_43 () U)
(declare-fun g_s43_44 () U)
(declare-fun g_s44_45 () U)
(declare-fun g_s45_46 () U)
(declare-fun g_s46_47 () U)
(declare-fun g_s47_48 () U)
(declare-fun g_s48_49 () U)
(declare-fun g_s49_50 () U)
(declare-fun g_s5_6 () U)
(declare-fun g_s50_51 () U)
(declare-fun g_s51_52 () U)
(declare-fun g_s52_53 () U)
(declare-fun g_s53_54 () U)
(declare-fun g_s54_55 () U)
(declare-fun g_s55_56 () U)
(declare-fun g_s56_57 () U)
(declare-fun g_s57_58 () U)
(declare-fun g_s58_59 () U)
(declare-fun g_s59_60 () U)
(declare-fun g_s6_7 () U)
(declare-fun g_s60_61 () U)
(declare-fun g_s61_62 () U)
(declare-fun g_s62_63 () U)
(declare-fun g_s63_64 () U)
(declare-fun g_s64_65 () U)
(declare-fun g_s65_66 () U)
(declare-fun g_s66_67 () U)
(declare-fun g_s67_68 () U)
(declare-fun g_s68_69 () U)
(declare-fun g_s69_70 () U)
(declare-fun g_s7_8 () U)
(declare-fun g_s70_71 () U)
(declare-fun g_s71_72 () U)
(declare-fun g_s72_73 () U)
(declare-fun g_s73_74 () U)
(declare-fun g_s74_75 () U)
(declare-fun g_s75_76 () U)
(declare-fun g_s76_77 () U)
(declare-fun g_s77_78 () U)
(declare-fun g_s78_79 () U)
(declare-fun g_s79_80 () U)
(declare-fun g_s8_9 () U)
(declare-fun g_s80_81 () U)
(declare-fun g_s81_82 () U)
(declare-fun g_s82_83 () U)
(declare-fun g_s83_84 () U)
(declare-fun g_s84_85 () U)
(declare-fun g_s85_86 () U)
(declare-fun g_s86_87 () U)
(declare-fun g_s87_88 () U)
(declare-fun g_s88_89 () U)
(declare-fun g_s89_90 () U)
(declare-fun g_s9_10 () U)
(declare-fun g_s90_91 () U)
(declare-fun g_s91_92 () U)
(declare-fun g_s92_93 () U)
(declare-fun g_s93_94 () U)
(declare-fun g_s94_95 () U)
(declare-fun g_s95_96 () U)
(declare-fun g_s96_97 () U)
(declare-fun g_s97_98 () U)
(declare-fun g_s98_99 () U)
(declare-fun g_s99_100 () U)
(declare-fun e149 () U)
(declare-fun e148 () U)
; Defines
(define-fun |def_B definitions| () Bool (and (= NAT (interval e0 MaxInt)) (= INT (interval MinInt MaxInt))))
(define-fun |def_ctx| () Bool (and (not (= g_s0_1 empty)) (not (= g_s1_2 empty)) (not (= g_s2_3 empty)) (not (= g_s3_4 empty)) (not (= g_s4_5 empty)) (not (= g_s5_6 empty)) (not (= g_s6_7 empty)) (not (= g_s7_8 empty)) (= g_s8_9 (SET (mapplet g_s10_11 g_s9_10))) (= g_s11_12 (SET (mapplet g_s15_16 (mapplet g_s14_15 (mapplet g_s13_14 g_s12_13))))) (= g_s16_17 (SET (mapplet g_s20_21 (mapplet g_s19_20 (mapplet g_s18_19 g_s17_18))))) (= g_s21_22 (SET (mapplet g_s30_31 (mapplet g_s29_30 (mapplet g_s28_29 (mapplet g_s27_28 (mapplet g_s26_27 (mapplet g_s25_26 (mapplet g_s24_25 (mapplet g_s23_24 g_s22_23)))))))))) (= g_s31_32 (SET (mapplet g_s34_35 (mapplet g_s33_34 g_s32_33)))) (= g_s35_36 (SET (mapplet g_s37_38 g_s36_37))) (= g_s38_39 (SET (mapplet g_s41_42 (mapplet g_s40_41 g_s39_40)))) (= g_s42_43 (SET (mapplet g_s44_45 g_s43_44))) (= g_s45_46 (SET (mapplet g_s49_50 (mapplet g_s48_49 (mapplet g_s47_48 g_s46_47))))) (= g_s50_51 (SET (mapplet g_s52_53 g_s51_52))) (= g_s53_54 (SET (mapplet g_s56_57 (mapplet g_s55_56 g_s54_55)))) (= g_s57_58 (SET (mapplet g_s60_61 (mapplet g_s59_60 g_s58_59)))) (= g_s61_62 (SET (mapplet g_s63_64 g_s62_63))) (= g_s64_65 (SET (mapplet g_s67_68 (mapplet g_s66_67 g_s65_66)))) (= g_s68_69 (SET (mapplet g_s73_74 (mapplet g_s72_73 (mapplet g_s71_72 (mapplet g_s70_71 g_s69_70)))))) (= g_s74_75 (SET (mapplet g_s77_78 (mapplet g_s76_77 g_s75_76)))) (= g_s78_79 (SET (mapplet g_s81_82 (mapplet g_s80_81 g_s79_80)))) (= g_s82_83 (SET (mapplet g_s85_86 (mapplet g_s84_85 g_s83_84)))) (= g_s86_87 (SET (mapplet g_s89_90 (mapplet g_s88_89 g_s87_88)))) (= g_s90_91 (SET (mapplet g_s93_94 (mapplet g_s92_93 g_s91_92)))) (= g_s94_95 (SET (mapplet g_s101_102 (mapplet g_s100_101 (mapplet g_s99_100 (mapplet g_s98_99 (mapplet g_s97_98 (mapplet g_s96_97 g_s95_96)))))))) (not (= g_s102_103 empty)) (not (= g_s103_104 empty)) (= g_s104_105 (SET (mapplet g_s107_108 (mapplet g_s106_107 g_s105_106)))) (not (= g_s108_109 empty)) (not (= g_s109_110 empty)) (not (= g_s110_111 empty)) (not (= g_s111_112 empty)) (not (= g_s112_113 empty)) (not (= g_s113_114 empty)) (not (= g_s114_115 empty)) (not (= g_s115_116 empty)) (not (= g_s116_117 empty)) (not (= g_s117_118 empty)) (not (= g_s118_119 empty)) (not (= g_s119_120 empty)) (not (= g_s120_121 empty)) (not (= g_s121_122 empty)) (not (= g_s122_123 empty)) (not (= g_s123_124 empty)) (not (= g_s124_125 empty)) (not (= g_s125_126 empty)) (not (= g_s126_127 empty)) (= g_s127_128 (SET (mapplet g_s129_130 g_s128_129))) (not (= g_s130_131 empty)) (not (= g_s131_132 empty)) (not (= g_s132_133 empty)) (not (= g_s133_134 empty)) (not (= g_s134_135 empty)) (not (= g_s135_136 empty)) (not (= g_s136_137 empty)) (not (= g_s137_138 empty)) (not (= g_s138_139 empty)) (not (= g_s139_140 empty)) (not (= g_s140_141 empty)) (not (= g_s141_142 empty)) (not (= g_s142_143 empty)) (not (= g_s143_144 empty)) (not (= g_s144_145 empty)) (not (= g_s145_146 empty)) (mem g_s146_147 (|-->| (set_prod INTEGER NATURAL) INTEGER)) (= g_s146_147 (binary_union e149 e148)) (mem g_s149_150 (|-->| BOOL NAT)) (= g_s149_150 (SET (mapplet (mapplet FALSE e0) (mapplet TRUE e151)))) (subset g_s150_152 INT) (subset g_s151_153 NAT) (subset g_s151_153 g_s150_152) (mem g_s152_154 g_s150_152) (not (mem g_s152_154 g_s151_153)) (= g_s153_155 INTEGER) (subset g_s154_156 INTEGER) (subset g_s154_156 g_s153_155) (mem g_s155_157 g_s153_155) (not (mem g_s155_157 g_s154_156)) (= g_s156_158 INTEGER) (= g_s157_159 NATURAL) (subset g_s157_159 g_s156_158) (mem g_s158_160 g_s157_159) (mem g_s159_161 g_s157_159) (mem g_s160_162 g_s156_158) (not (mem g_s160_162 g_s157_159)) (|<=i| g_s158_160 g_s159_161) (subset g_s161_163 g_s102_103) (mem g_s162_164 g_s102_103) (not (mem g_s162_164 g_s161_163)) (mem g_s163_165 (|+->| NAT g_s102_103)) (mem g_s163_165 (perm g_s161_163)) (subset g_s151_153 g_s154_156) (subset g_s164_166 g_s103_104) (mem g_s165_167 g_s103_104) (not (mem g_s165_167 g_s164_166)) (mem g_s166_168 (|+->| NAT g_s103_104)) (mem g_s166_168 (perm g_s164_166)) (subset g_s167_169 g_s108_109) (mem g_s168_170 g_s108_109) (not (mem g_s168_170 g_s167_169)) (subset g_s169_171 g_s109_110) (mem g_s170_172 g_s109_110) (not (mem g_s170_172 g_s169_171)) (subset g_s171_173 g_s110_111) (mem g_s172_174 g_s110_111) (not (mem g_s172_174 g_s171_173)) (subset g_s173_175 g_s111_112) (mem g_s174_176 g_s111_112) (not (mem g_s174_176 g_s173_175)) (subset g_s175_178 g_s176_177) (not (mem g_s177_179 g_s175_178)) (= g_s175_178 (SET (mapplet g_s180_182 (mapplet g_s179_181 g_s178_180)))) (mem g_s181_183 (|+->| g_s173_175 g_s171_173)) (mem g_s182_184 (|+->| g_s171_173 g_s173_175)) (subset g_s183_185 g_s112_113) (mem g_s184_186 g_s112_113) (not (mem g_s184_186 g_s183_185)) (mem g_s185_187 (|+->| NAT g_s112_113)) (mem g_s185_187 (perm g_s183_185)) (subset g_s186_188 g_s113_114) (mem g_s187_189 g_s113_114) (not (mem g_s187_189 g_s186_188)) (mem g_s188_190 (|+->| NAT g_s113_114)) (mem g_s188_190 (perm g_s186_188)) (subset g_s189_191 g_s114_115) (mem g_s190_192 g_s114_115) (not (mem g_s190_192 g_s189_191)) (subset g_s191_193 g_s115_116) (mem g_s192_194 g_s115_116) (not (mem g_s192_194 g_s191_193)) (mem g_s193_195 (|+->| NAT g_s115_116)) (mem g_s193_195 (perm g_s191_193)) (= (card g_s191_193) g_s194_196) (subset g_s195_197 g_s116_117) (mem g_s196_198 g_s116_117) (not (mem g_s196_198 g_s195_197)) (mem g_s197_199 g_s116_117) (mem g_s197_199 g_s195_197) (mem g_s198_200 g_s116_117) (mem g_s198_200 g_s195_197) (mem g_s199_201 g_s116_117) (mem g_s199_201 g_s195_197) (mem g_s200_202 g_s116_117) (mem g_s200_202 g_s195_197) (mem g_s201_203 (|+->| NAT g_s116_117)) (mem g_s201_203 (perm g_s195_197)) (subset g_s202_204 g_s117_118) (mem g_s203_205 g_s117_118) (not (mem g_s203_205 g_s202_204)) (mem g_s204_206 (|+->| NAT g_s117_118)) (mem g_s204_206 (perm g_s202_204)) (subset g_s205_207 g_s118_119) (mem g_s206_208 g_s118_119) (not (mem g_s206_208 g_s205_207)) (= g_s207_209 INTEGER) (= g_s208_210 NATURAL) (subset g_s208_210 g_s207_209) (mem g_s209_211 g_s207_209) (not (mem g_s209_211 g_s208_210)) (mem g_s210_212 g_s208_210) (subset g_s211_213 g_s119_120) (mem g_s212_214 g_s119_120) (not (mem g_s212_214 g_s211_213)) (mem g_s213_215 (|+->| NAT g_s119_120)) (mem g_s213_215 (perm g_s211_213)) (subset g_s214_216 g_s120_121) (mem g_s215_217 g_s120_121) (not (mem g_s215_217 g_s214_216)) (mem g_s216_218 (|+->| NAT g_s120_121)) (mem g_s216_218 (perm g_s214_216)) (subset g_s217_219 g_s121_122) (mem g_s218_220 g_s121_122) (not (mem g_s218_220 g_s217_219)) (mem g_s219_221 (|+->| NAT g_s121_122)) (mem g_s219_221 (perm g_s217_219)) (subset g_s220_222 g_s122_123) (mem g_s221_223 g_s122_123) (not (mem g_s221_223 g_s220_222)) (mem g_s222_224 (|+->| NAT g_s122_123)) (mem g_s222_224 (perm g_s220_222)) (= (card g_s220_222) g_s223_225) (subset g_s224_226 g_s123_124) (mem g_s225_227 g_s123_124) (not (mem g_s225_227 g_s224_226)) (mem g_s226_228 (|+->| NAT g_s123_124)) (mem g_s226_228 (perm g_s224_226)) (subset g_s227_229 g_s124_125) (mem g_s228_230 g_s124_125) (not (mem g_s228_230 g_s227_229)) (mem g_s229_231 (|+->| NAT g_s124_125)) (mem g_s229_231 (perm g_s227_229)) (= (card g_s227_229) g_s230_232) (subset g_s231_233 g_s125_126) (mem g_s232_234 g_s125_126) (not (mem g_s232_234 g_s231_233)) (mem g_s233_235 (|+->| NAT g_s125_126)) (mem g_s233_235 (perm g_s231_233)) (subset g_s234_236 g_s126_127) (mem g_s235_237 g_s126_127) (not (mem g_s235_237 g_s234_236)) (mem g_s236_238 (|+->| NAT g_s126_127)) (mem g_s236_238 (perm g_s234_236)) (subset g_s237_239 g_s130_131) (mem g_s238_240 g_s130_131) (not (mem g_s238_240 g_s237_239)) (mem g_s239_241 (|+->| NAT g_s130_131)) (mem g_s239_241 (perm g_s237_239)) (subset g_s240_242 g_s131_132) (mem g_s241_243 g_s131_132) (not (mem g_s241_243 g_s240_242)) (mem g_s242_244 (|+->| NAT g_s131_132)) (mem g_s242_244 (perm g_s240_242)) (subset g_s243_245 g_s132_133) (mem g_s244_246 g_s132_133) (not (mem g_s244_246 g_s243_245)) (mem g_s245_247 (|+->| NAT g_s132_133)) (mem g_s245_247 (perm g_s243_245)) (subset g_s246_248 g_s133_134) (mem g_s247_249 g_s133_134) (not (mem g_s247_249 g_s246_248)) (mem g_s248_250 (|+->| NAT g_s133_134)) (mem g_s248_250 (perm g_s246_248)) (subset g_s249_251 g_s134_135) (mem g_s250_252 g_s134_135) (not (mem g_s250_252 g_s249_251)) (mem g_s251_253 (|+->| NAT g_s134_135)) (mem g_s251_253 (perm g_s249_251)) (subset g_s252_254 g_s135_136) (mem g_s253_255 g_s135_136) (not (mem g_s253_255 g_s252_254)) (mem g_s254_256 (|+->| NAT g_s135_136)) (mem g_s254_256 (perm g_s252_254)) (subset g_s255_257 g_s136_137) (mem g_s256_258 g_s136_137) (not (mem g_s256_258 g_s255_257)) (mem g_s257_259 (|+->| NAT g_s136_137)) (mem g_s257_259 (perm g_s255_257)) (subset g_s258_260 g_s137_138) (mem g_s259_261 g_s137_138) (not (mem g_s259_261 g_s258_260)) (mem g_s260_262 (|+->| NAT g_s137_138)) (mem g_s260_262 (perm g_s258_260)) (subset g_s261_263 g_s138_139) (mem g_s262_264 g_s138_139) (not (mem g_s262_264 g_s261_263)) (mem g_s263_265 (|+->| NAT g_s138_139)) (mem g_s263_265 (perm g_s261_263)) (subset g_s264_266 g_s139_140) (mem g_s265_267 g_s139_140) (not (mem g_s265_267 g_s264_266)) (mem g_s266_268 (|+->| NAT g_s139_140)) (mem g_s266_268 (perm g_s264_266)) (subset g_s267_269 g_s140_141) (mem g_s268_270 g_s140_141) (not (mem g_s268_270 g_s267_269)) (subset g_s269_271 g_s141_142) (mem g_s270_272 g_s141_142) (not (mem g_s270_272 g_s269_271)) (mem g_s271_273 (|+->| NAT g_s141_142)) (mem g_s271_273 (perm g_s269_271)) (subset g_s272_274 g_s142_143) (mem g_s273_275 g_s142_143) (not (mem g_s273_275 g_s272_274)) (mem g_s274_276 (|+->| NAT g_s142_143)) (mem g_s274_276 (perm g_s272_274)) (subset g_s275_277 g_s143_144) (mem g_s276_278 g_s143_144) (not (mem g_s276_278 g_s275_277)) (mem g_s277_279 (|+->| NAT g_s143_144)) (mem g_s277_279 (perm g_s275_277)) (subset g_s278_280 g_s144_145) (mem g_s279_281 g_s144_145) (not (mem g_s279_281 g_s278_280)) (mem g_s280_282 (|+->| NAT g_s144_145)) (mem g_s280_282 (perm g_s278_280)) (subset g_s281_283 g_s145_146) (mem g_s282_284 g_s145_146) (not (mem g_s282_284 g_s281_283)) (mem g_s283_285 (|+->| NAT g_s145_146)) (mem g_s283_285 (perm g_s281_283))))
(define-fun |def_seext| () Bool true)
(define-fun |def_lprp| () Bool true)
(define-fun |def_inprp| () Bool true)
(define-fun |def_inext| () Bool true)
(define-fun |def_inv| () Bool (and (mem g_s284_286 g_s111_112) (mem g_s285_287 g_s109_110) (mem g_s286_288 BOOL) (mem g_s287_289 BOOL) (mem g_s288_290 BOOL) (mem g_s289_291 g_s111_112) (mem g_s290_292 g_s109_110) (mem g_s291_293 BOOL) (mem g_s292_294 BOOL) (mem g_s293_295 BOOL) (mem g_s294_296 g_s111_112) (mem g_s295_297 g_s109_110) (mem g_s296_298 BOOL) (mem g_s297_299 BOOL) (mem g_s298_300 BOOL) (mem g_s299_301 g_s111_112) (mem g_s300_302 g_s109_110) (mem g_s301_303 g_s118_119) (mem g_s302_304 g_s116_117) (mem g_s303_305 g_s207_209) (mem g_s304_306 BOOL) (mem g_s305_307 g_s113_114) (mem g_s306_308 g_s150_152) (mem g_s307_309 BOOL) (mem g_s308_310 g_s113_114) (mem g_s309_311 g_s150_152) (mem g_s310_312 BOOL) (mem g_s311_313 (|-->| g_s113_114 BOOL)) (mem g_s312_314 BOOL) (mem g_s313_315 BOOL) (mem g_s314_316 BOOL) (mem g_s315_317 g_s111_112) (mem g_s316_318 g_s109_110) (mem g_s317_319 g_s122_123) (mem g_s318_320 g_s57_58) (mem g_s319_321 BOOL) (mem g_s320_322 BOOL) (mem g_s321_323 BOOL) (mem g_s322_324 g_s111_112) (mem g_s323_325 g_s109_110) (mem g_s324_326 g_s124_125) (mem g_s325_327 g_s64_65) (mem g_s326_328 BOOL) (mem g_s327_329 BOOL) (mem g_s328_330 BOOL) (mem g_s329_331 g_s111_112) (mem g_s330_332 g_s109_110) (mem g_s331_333 g_s110_111) (mem g_s332_334 BOOL) (mem g_s333_335 BOOL) (mem g_s334_336 BOOL) (mem g_s335_337 g_s111_112) (mem g_s336_338 g_s109_110) (mem g_s337_339 g_s109_110) (mem g_s338_340 g_s103_104) (mem g_s339_341 g_s61_62) (mem g_s340_342 BOOL) (mem g_s341_343 BOOL) (mem g_s342_344 BOOL) (mem g_s343_345 g_s111_112) (mem g_s344_346 g_s109_110) (mem g_s345_347 g_s109_110) (mem g_s346_348 g_s103_104) (mem g_s347_349 g_s145_146) (mem g_s348_350 BOOL) (mem g_s349_351 BOOL) (mem g_s350_352 BOOL) (mem g_s351_353 BOOL) (mem g_s352_354 BOOL) (mem g_s353_355 BOOL) (mem g_s354_356 BOOL) (mem g_s355_357 BOOL) (mem g_s356_358 BOOL) (mem g_s357_359 BOOL) (mem g_s358_360 BOOL) (mem g_s359_361 BOOL)))
(define-fun |def_ass| () Bool true)
(define-fun |def_cst| () Bool true)
(define-fun |def_sets| () Bool true)
; PO group 0 
(assert |def_B definitions|)
(assert |def_ctx|)
(assert |def_cst|)
(assert |def_lprp|)
(assert |def_inprp|)
(assert |def_inext|)
(assert |def_seext|)
; PO 1 in group 0
(assert (not (mem (set_prod g_s113_114 (SET FALSE)) (|-->| g_s113_114 BOOL))))
(check-sat)
(exit)